c FILE: i080-231

c SOURCE: From steinlib

c DESCRIPTION: Steinlib instance with 80 nodes and 160 edges.

p edge 80 160
e 1 31
e 1 63
e 1 76
e 2 48
e 2 60
e 3 19
e 3 21
e 3 22
e 3 31
e 3 64
e 3 76
e 4 20
e 4 33
e 4 58
e 4 65
e 4 66
e 4 78
e 5 6
e 5 34
e 6 31
e 6 49
e 6 68
e 7 51
e 8 27
e 8 28
e 8 32
e 8 68
e 9 62
e 9 67
e 9 69
e 9 80
e 10 71
e 11 28
e 11 57
e 12 33
e 12 39
e 12 45
e 12 53
e 13 26
e 13 37
e 13 60
e 14 56
e 15 22
e 15 38
e 15 45
e 15 51
e 15 62
e 15 64
e 16 34
e 16 39
e 16 48
e 16 65
e 16 72
e 17 33
e 17 40
e 17 44
e 17 72
e 18 49
e 18 67
e 19 26
e 19 39
e 19 40
e 19 50
e 19 53
e 19 54
e 20 37
e 20 46
e 21 57
e 21 59
e 22 26
e 23 30
e 23 63
e 23 71
e 24 53
e 24 54
e 25 32
e 25 65
e 26 40
e 26 41
e 26 55
e 26 56
e 27 48
e 27 60
e 28 53
e 28 62
e 29 41
e 29 71
e 30 68
e 30 76
e 31 51
e 31 52
e 31 54
e 31 77
e 31 80
e 32 71
e 33 42
e 34 41
e 34 46
e 35 37
e 35 55
e 35 62
e 35 71
e 36 56
e 36 70
e 36 74
e 38 58
e 40 45
e 40 60
e 40 75
e 40 76
e 40 79
e 41 56
e 41 76
e 42 80
e 43 47
e 43 53
e 44 51
e 44 54
e 44 70
e 45 47
e 45 62
e 45 76
e 45 77
e 46 66
e 47 48
e 47 49
e 47 51
e 47 52
e 47 63
e 47 65
e 49 50
e 51 52
e 51 72
e 52 67
e 54 65
e 55 63
e 56 58
e 56 73
e 57 63
e 58 63
e 59 60
e 59 69
e 59 72
e 59 75
e 60 76
e 60 79
e 61 74
e 61 75
e 62 72
e 64 69
e 65 66
e 65 68
e 65 73
e 65 78
e 66 73
e 67 73
e 68 77
e 71 73
e 71 77
e 76 78
